solution status: optimal solution found
objective value:                     161966.838051028
d11(0,0)                                            1 	(obj:0)
d11(1,1)                                            1 	(obj:0)
d11(1,2)                                            1 	(obj:0)
d11(2,5)                                            1 	(obj:0)
d11(3,13)                                           1 	(obj:0)
d12(2,4)                                            1 	(obj:0)
d12(2,6)                                            1 	(obj:0)
d12(3,8)                                            1 	(obj:0)
d12(3,10)                                           1 	(obj:0)
d12(3,12)                                           1 	(obj:0)
d12(3,14)                                           1 	(obj:0)
d21(2,3)                                            1 	(obj:0)
d21(3,7)                                            1 	(obj:0)
d21(3,8)                                            1 	(obj:0)
d21(3,9)                                            1 	(obj:0)
WB(2)                                3315.65537776224 	(obj:0)
y2(2,4)                              1385.48851144895 	(obj:0)
y2(2,6)                              1385.48851144895 	(obj:0)
y2(3,8)                              1385.48851144895 	(obj:0)
y2(3,10)                             1385.48851144895 	(obj:0)
y2(3,12)                             1385.48851144895 	(obj:0)
y2(3,14)                             1385.48851144895 	(obj:0)
STE(1,1)                             5586.75010110906 	(obj:0)
STE(0,0)                                        15750 	(obj:0)
STE(1,2)                             7244.99999999788 	(obj:0)
STE(2,3)                             4326.75010110906 	(obj:0)
STE(2,4)                             5642.96418698557 	(obj:0)
STE(2,5)                             5984.99999999794 	(obj:0)
STE(2,6)                             7301.21408587439 	(obj:0)
STE(3,7)                             3066.75010110906 	(obj:0)
STE(3,8)                             4382.96418698557 	(obj:0)
STE(3,9)                             4382.96418698557 	(obj:0)
STE(3,10)                            5699.17827286208 	(obj:0)
STE(3,11)                            4724.99999999794 	(obj:0)
STE(3,12)                            6041.21408587445 	(obj:0)
STE(3,13)                            6041.21408587439 	(obj:0)
STE(3,14)                            7357.42817175089 	(obj:0)
AVE(2)                               3315.65537776224 	(obj:0)
WB(3)                                3315.65799770399 	(obj:0)
y1(1,1)                              8012.92490900184 	(obj:0)
y1(1,2)                              6520.50000000191 	(obj:0)
AVE(3)                               3315.65799770399 	(obj:0)
WG(1)                                3248.33172520918 	(obj:10)
BG(1)                                7601.53220234376 	(obj:10)
BG(2)                                2673.40993877551 	(obj:10)
BG(3)                                2673.40993877551 	(obj:10)
AVE(1)                               3248.33172520918 	(obj:0)
